peakDumbCharging = 11100; 
Machine = anon_enum(16); 
machineSpeed = [3700,3700,3700,3700,3700,3700,3700,3700,3700,3700,3700,3700,3700,3700,3700,3700]; 
machineLoad = [3700,3700,3700,3700,3700,3700,3700,3700,3700,3700,3700,3700,3700,3700,3700,3700]; 
Car = anon_enum(8); 
demandCar = [6480,20520,5920,13120,10000,5880,10680,18240]; 
arrivalCar = [78,71,70,67,66,61,61,43]; 
departureCar = [81,80,75,72,71,66,67,51]; 
